p cnf 113 346
c t mc
-4 -2 0
-4 -3 0
2 3 4 0
1 4 -5 0
-1 -4 -5 0
1 -4 5 0
-1 4 5 0
7 5 0
7 6 0
-5 -6 -7 0
11 -9 0
11 10 0
9 -10 -11 0
12 -8 0
12 11 0
8 -11 -12 0
-15 13 0
-15 14 0
-13 -14 15 0
16 -12 0
16 -15 0
12 15 -16 0
19 -17 0
19 18 0
17 -18 -19 0
21 -6 0
21 20 0
6 -20 -21 0
21 -22 -23 0
-21 22 -23 0
21 22 23 0
-21 -22 23 0
-24 -19 0
-24 23 0
19 -23 24 0
-25 16 0
-25 24 0
-16 -24 25 0
-2 -26 -27 0
2 26 -27 0
-2 26 27 0
2 -26 27 0
20 -27 -28 0
-20 27 -28 0
20 27 28 0
-20 -27 28 0
29 -28 0
29 27 0
28 -27 -29 0
-25 29 -30 0
25 -29 -30 0
-25 -29 30 0
25 29 30 0
32 5 -33 0
-32 -5 -33 0
32 -5 33 0
-32 5 33 0
-34 31 0
-34 33 0
-31 -33 34 0
-35 30 0
-35 -34 0
-30 34 35 0
-37 -36 0
-37 14 0
36 -14 37 0
38 18 0
38 37 0
-18 -37 -38 0
-39 -2 -40 0
39 2 -40 0
-39 2 40 0
39 -2 40 0
32 -8 -41 0
-32 8 -41 0
32 8 41 0
-32 -8 41 0
-41 -27 -42 0
41 27 -42 0
-41 27 42 0
41 -27 42 0
-43 -28 0
-43 42 0
28 -42 43 0
45 44 0
45 -26 0
-44 26 -45 0
6 -46 -47 0
-6 46 -47 0
6 46 47 0
-6 -46 47 0
-48 -47 0
-48 -8 0
47 8 48 0
49 45 0
49 48 0
-45 -48 -49 0
50 43 0
50 -49 0
-43 49 -50 0
40 -50 -51 0
-40 50 -51 0
40 50 51 0
-40 -50 51 0
38 51 -52 0
-38 -51 -52 0
38 -51 52 0
-38 51 52 0
-6 3 -53 0
6 -3 -53 0
-6 -3 53 0
6 3 53 0
53 54 -55 0
-53 -54 -55 0
53 -54 55 0
-53 54 55 0
55 19 -56 0
-55 -19 -56 0
55 -19 56 0
-55 19 56 0
-57 -42 0
-57 20 0
42 -20 57 0
-58 -36 0
-58 -57 0
36 57 58 0
-59 -56 0
-59 58 0
56 -58 59 0
60 52 0
60 -59 0
-52 59 -60 0
-61 35 0
-61 -60 0
-35 60 61 0
-7 61 -62 0
7 -61 -62 0
-7 -61 62 0
7 61 62 0
-63 -54 0
-63 8 0
54 -8 63 0
-64 54 0
-64 63 0
-54 -63 64 0
-65 -42 0
-65 -36 0
42 36 65 0
66 -64 0
66 -65 0
64 65 -66 0
67 -62 0
67 -66 0
62 66 -67 0
-68 -39 0
-68 -28 0
39 28 68 0
-69 -70 -71 0
69 70 -71 0
-69 70 71 0
69 -70 71 0
68 -71 -72 0
-68 71 -72 0
68 71 72 0
-68 -71 72 0
-13 14 -73 0
13 -14 -73 0
-13 -14 73 0
13 14 73 0
74 -63 0
74 9 0
63 -9 -74 0
-75 13 0
-75 -5 0
-13 5 75 0
76 46 0
76 -75 0
-46 75 -76 0
74 76 -77 0
-74 -76 -77 0
74 -76 77 0
-74 76 77 0
73 -77 -78 0
-73 77 -78 0
73 77 78 0
-73 -77 78 0
-79 -72 0
-79 -78 0
72 78 79 0
-81 -80 0
-81 54 0
80 -54 81 0
82 -13 0
82 81 0
13 -81 -82 0
-83 53 0
-83 -53 0
82 83 -84 0
-82 -83 -84 0
82 -83 84 0
-82 83 84 0
85 79 0
85 -84 0
-79 84 -85 0
-86 55 0
-86 8 0
-55 -8 86 0
-87 86 0
-87 -81 0
-86 81 87 0
88 32 0
88 -87 0
-32 87 -88 0
-89 88 0
-89 44 0
-88 -44 89 0
90 -63 0
90 -9 0
63 9 -90 0
91 89 0
91 -90 0
-89 90 -91 0
92 85 0
92 91 0
-85 -91 -92 0
-93 42 0
-93 80 0
-42 -80 93 0
-70 -46 -94 0
70 46 -94 0
-70 46 94 0
70 -46 94 0
-95 -93 0
-95 94 0
93 -94 95 0
96 55 0
96 -6 0
-55 6 -96 0
97 -86 0
97 15 0
86 -15 -97 0
-98 96 0
-98 97 0
-96 -97 98 0
-99 8 0
-99 57 0
-8 -57 99 0
-100 99 0
-100 26 0
-99 -26 100 0
101 -19 0
101 -100 0
19 100 -101 0
102 98 0
102 -101 0
-98 101 -102 0
-103 95 0
-103 -102 0
-95 102 103 0
-92 103 -104 0
92 -103 -104 0
-92 -103 104 0
92 103 104 0
105 -67 0
105 -104 0
67 104 -105 0
-4 106 0
4 106 0
-107 106 0
-107 -89 0
-106 89 107 0
-108 -6 0
-108 -88 0
6 88 108 0
109 -5 0
109 -108 0
5 108 -109 0
86 -2 -110 0
-86 2 -110 0
86 2 110 0
-86 -2 110 0
111 109 0
111 -110 0
-109 110 -111 0
-112 107 0
-112 111 0
-107 -111 112 0
-113 -105 0
-113 112 0
105 -112 113 0
-33 -76 45 -12 0
44 100 86 -92 16 0
23 -18 -15 -103 66 -109 0
66 -79 -65 0
-49 86 36 -103 -104 -45 -17 -64 109 39 0
-57 86 -60 100 -11 0
101 -39 50 69 0
59 -33 12 0
26 6 -80 0
87 50 -39 -96 -67 -82 -25 -88 -86 0
57 -92 -18 0
-104 -39 -85 0
-26 76 -2 90 -45 4 -107 0
-50 98 72 0
-96 23 -30 106 68 56 0
-87 70 -6 -38 -63 -46 8 -21 -4 -12 0
-60 -35 -90 -54 82 -107 81 -57 27 0
-105 -19 8 41 -57 -52 11 -12 43 0
-85 -9 104 92 100 80 0
99 25 -69 -86 -46 79 -47 -1 -74 30 0
-83 9 47 10 -41 76 21 90 103 79 0
-27 -48 92 -44 0
-41 74 -60 46 12 0
-9 97 79 8 96 -25 -27 -107 72 -12 0
32 40 -49 0
-30 44 25 -60 27 65 0
59 101 -29 0
-88 -40 47 -80 -76 -10 29 104 0
-54 20 98 -55 52 25 -50 12 -85 0
-41 -73 -14 -87 -44 13 -110 62 90 0
11 85 -29 1 -90 0
-26 17 -48 112 -108 51 -31 -29 -18 12 0
-23 91 -69 47 -1 -53 9 110 -93 49 0
-83 -64 -79 33 0
-45 75 84 -20 -106 -103 -66 -34 41 0
98 -9 -30 39 -25 -109 83 -13 -15 0
61 64 77 -73 90 -51 -7 39 -107 0
-32 31 -76 89 48 -82 0
-96 -23 30 105 21 54 0
24 -67 -68 -58 0
5 41 -56 -21 -55 -87 101 40 -91 0
21 67 -3 37 -71 0
17 49 -85 -8 11 -55 0
64 109 111 -94 43 93 -26 -12 65 0
13 59 -111 51 48 0
3 -107 13 22 16 0
65 -39 99 -89 -83 -5 54 0
-10 7 60 -94 -89 -93 -88 95 -37 0
105 7 -13 -66 -104 74 101 0
101 60 38 -55 30 6 -27 0
109 90 -32 26 -70 92 0
27 44 -29 94 90 0
101 40 -94 -61 5 97 -80 0
97 -4 111 75 -48 -41 0
-107 58 87 -113 0
113 0
